liczbaMiejsc = 96;
liczbaPracownikow = 48;
dMin = 2.5;
procentowaZajetoscMiejscWFirmie = 0.5;
macierzOdleglosci = [[0, 1.5, 3.0, 4.5, 6.0, 7.5, 9.0, 10.5, 12.0, 13.5, 15.0, 16.5, 2.0, 2.5, 3.6, 4.9, 6.3, 7.8, 9.2, 10.7, 12.2, 13.6, 15.1, 16.6, 5.0, 5.2, 5.8, 6.7, 7.8, 9.0, 10.3, 11.6, 13.0, 14.4, 15.8, 17.2, 7.0, 7.2, 7.6, 8.3, 9.2, 10.3, 11.4, 12.6, 13.9, 15.2, 16.6, 17.9, 10.0, 10.1, 10.4, 11.0, 11.7, 12.5, 13.5, 14.5, 15.6, 16.8, 18.0, 19.3, 12.0, 12.1, 12.4, 12.8, 13.4, 14.2, 15.0, 15.9, 17.0, 18.1, 19.2, 20.4, 15.0, 15.1, 15.3, 15.7, 16.2, 16.8, 17.5, 18.3, 19.2, 20.2, 21.2, 22.3, 17.0, 17.1, 17.3, 17.6, 18.0, 18.6, 19.2, 20.0, 20.8, 21.7, 22.7, 23.7], [0, 0, 1.5, 3.0, 4.5, 6.0, 7.5, 9.0, 10.5, 12.0, 13.5, 15.0, 2.5, 2.0, 2.5, 3.6, 4.9, 6.3, 7.8, 9.2, 10.7, 12.2, 13.6, 15.1, 5.2, 5.0, 5.2, 5.8, 6.7, 7.8, 9.0, 10.3, 11.6, 13.0, 14.4, 15.8, 7.2, 7.0, 7.2, 7.6, 8.3, 9.2, 10.3, 11.4, 12.6, 13.9, 15.2, 16.6, 10.1, 10.0, 10.1, 10.4, 11.0, 11.7, 12.5, 13.5, 14.5, 15.6, 16.8, 18.0, 12.1, 12.0, 12.1, 12.4, 12.8, 13.4, 14.2, 15.0, 15.9, 17.0, 18.1, 19.2, 15.1, 15.0, 15.1, 15.3, 15.7, 16.2, 16.8, 17.5, 18.3, 19.2, 20.2, 21.2, 17.1, 17.0, 17.1, 17.3, 17.6, 18.0, 18.6, 19.2, 20.0, 20.8, 21.7, 22.7], [0, 0, 0, 1.5, 3.0, 4.5, 6.0, 7.5, 9.0, 10.5, 12.0, 13.5, 3.6, 2.5, 2.0, 2.5, 3.6, 4.9, 6.3, 7.8, 9.2, 10.7, 12.2, 13.6, 5.8, 5.2, 5.0, 5.2, 5.8, 6.7, 7.8, 9.0, 10.3, 11.6, 13.0, 14.4, 7.6, 7.2, 7.0, 7.2, 7.6, 8.3, 9.2, 10.3, 11.4, 12.6, 13.9, 15.2, 10.4, 10.1, 10.0, 10.1, 10.4, 11.0, 11.7, 12.5, 13.5, 14.5, 15.6, 16.8, 12.4, 12.1, 12.0, 12.1, 12.4, 12.8, 13.4, 14.2, 15.0, 15.9, 17.0, 18.1, 15.3, 15.1, 15.0, 15.1, 15.3, 15.7, 16.2, 16.8, 17.5, 18.3, 19.2, 20.2, 17.3, 17.1, 17.0, 17.1, 17.3, 17.6, 18.0, 18.6, 19.2, 20.0, 20.8, 21.7], [0, 0, 0, 0, 1.5, 3.0, 4.5, 6.0, 7.5, 9.0, 10.5, 12.0, 4.9, 3.6, 2.5, 2.0, 2.5, 3.6, 4.9, 6.3, 7.8, 9.2, 10.7, 12.2, 6.7, 5.8, 5.2, 5.0, 5.2, 5.8, 6.7, 7.8, 9.0, 10.3, 11.6, 13.0, 8.3, 7.6, 7.2, 7.0, 7.2, 7.6, 8.3, 9.2, 10.3, 11.4, 12.6, 13.9, 11.0, 10.4, 10.1, 10.0, 10.1, 10.4, 11.0, 11.7, 12.5, 13.5, 14.5, 15.6, 12.8, 12.4, 12.1, 12.0, 12.1, 12.4, 12.8, 13.4, 14.2, 15.0, 15.9, 17.0, 15.7, 15.3, 15.1, 15.0, 15.1, 15.3, 15.7, 16.2, 16.8, 17.5, 18.3, 19.2, 17.6, 17.3, 17.1, 17.0, 17.1, 17.3, 17.6, 18.0, 18.6, 19.2, 20.0, 20.8], [0, 0, 0, 0, 0, 1.5, 3.0, 4.5, 6.0, 7.5, 9.0, 10.5, 6.3, 4.9, 3.6, 2.5, 2.0, 2.5, 3.6, 4.9, 6.3, 7.8, 9.2, 10.7, 7.8, 6.7, 5.8, 5.2, 5.0, 5.2, 5.8, 6.7, 7.8, 9.0, 10.3, 11.6, 9.2, 8.3, 7.6, 7.2, 7.0, 7.2, 7.6, 8.3, 9.2, 10.3, 11.4, 12.6, 11.7, 11.0, 10.4, 10.1, 10.0, 10.1, 10.4, 11.0, 11.7, 12.5, 13.5, 14.5, 13.4, 12.8, 12.4, 12.1, 12.0, 12.1, 12.4, 12.8, 13.4, 14.2, 15.0, 15.9, 16.2, 15.7, 15.3, 15.1, 15.0, 15.1, 15.3, 15.7, 16.2, 16.8, 17.5, 18.3, 18.0, 17.6, 17.3, 17.1, 17.0, 17.1, 17.3, 17.6, 18.0, 18.6, 19.2, 20.0], [0, 0, 0, 0, 0, 0, 1.5, 3.0, 4.5, 6.0, 7.5, 9.0, 7.8, 6.3, 4.9, 3.6, 2.5, 2.0, 2.5, 3.6, 4.9, 6.3, 7.8, 9.2, 9.0, 7.8, 6.7, 5.8, 5.2, 5.0, 5.2, 5.8, 6.7, 7.8, 9.0, 10.3, 10.3, 9.2, 8.3, 7.6, 7.2, 7.0, 7.2, 7.6, 8.3, 9.2, 10.3, 11.4, 12.5, 11.7, 11.0, 10.4, 10.1, 10.0, 10.1, 10.4, 11.0, 11.7, 12.5, 13.5, 14.2, 13.4, 12.8, 12.4, 12.1, 12.0, 12.1, 12.4, 12.8, 13.4, 14.2, 15.0, 16.8, 16.2, 15.7, 15.3, 15.1, 15.0, 15.1, 15.3, 15.7, 16.2, 16.8, 17.5, 18.6, 18.0, 17.6, 17.3, 17.1, 17.0, 17.1, 17.3, 17.6, 18.0, 18.6, 19.2], [0, 0, 0, 0, 0, 0, 0, 1.5, 3.0, 4.5, 6.0, 7.5, 9.2, 7.8, 6.3, 4.9, 3.6, 2.5, 2.0, 2.5, 3.6, 4.9, 6.3, 7.8, 10.3, 9.0, 7.8, 6.7, 5.8, 5.2, 5.0, 5.2, 5.8, 6.7, 7.8, 9.0, 11.4, 10.3, 9.2, 8.3, 7.6, 7.2, 7.0, 7.2, 7.6, 8.3, 9.2, 10.3, 13.5, 12.5, 11.7, 11.0, 10.4, 10.1, 10.0, 10.1, 10.4, 11.0, 11.7, 12.5, 15.0, 14.2, 13.4, 12.8, 12.4, 12.1, 12.0, 12.1, 12.4, 12.8, 13.4, 14.2, 17.5, 16.8, 16.2, 15.7, 15.3, 15.1, 15.0, 15.1, 15.3, 15.7, 16.2, 16.8, 19.2, 18.6, 18.0, 17.6, 17.3, 17.1, 17.0, 17.1, 17.3, 17.6, 18.0, 18.6], [0, 0, 0, 0, 0, 0, 0, 0, 1.5, 3.0, 4.5, 6.0, 10.7, 9.2, 7.8, 6.3, 4.9, 3.6, 2.5, 2.0, 2.5, 3.6, 4.9, 6.3, 11.6, 10.3, 9.0, 7.8, 6.7, 5.8, 5.2, 5.0, 5.2, 5.8, 6.7, 7.8, 12.6, 11.4, 10.3, 9.2, 8.3, 7.6, 7.2, 7.0, 7.2, 7.6, 8.3, 9.2, 14.5, 13.5, 12.5, 11.7, 11.0, 10.4, 10.1, 10.0, 10.1, 10.4, 11.0, 11.7, 15.9, 15.0, 14.2, 13.4, 12.8, 12.4, 12.1, 12.0, 12.1, 12.4, 12.8, 13.4, 18.3, 17.5, 16.8, 16.2, 15.7, 15.3, 15.1, 15.0, 15.1, 15.3, 15.7, 16.2, 20.0, 19.2, 18.6, 18.0, 17.6, 17.3, 17.1, 17.0, 17.1, 17.3, 17.6, 18.0], [0, 0, 0, 0, 0, 0, 0, 0, 0, 1.5, 3.0, 4.5, 12.2, 10.7, 9.2, 7.8, 6.3, 4.9, 3.6, 2.5, 2.0, 2.5, 3.6, 4.9, 13.0, 11.6, 10.3, 9.0, 7.8, 6.7, 5.8, 5.2, 5.0, 5.2, 5.8, 6.7, 13.9, 12.6, 11.4, 10.3, 9.2, 8.3, 7.6, 7.2, 7.0, 7.2, 7.6, 8.3, 15.6, 14.5, 13.5, 12.5, 11.7, 11.0, 10.4, 10.1, 10.0, 10.1, 10.4, 11.0, 17.0, 15.9, 15.0, 14.2, 13.4, 12.8, 12.4, 12.1, 12.0, 12.1, 12.4, 12.8, 19.2, 18.3, 17.5, 16.8, 16.2, 15.7, 15.3, 15.1, 15.0, 15.1, 15.3, 15.7, 20.8, 20.0, 19.2, 18.6, 18.0, 17.6, 17.3, 17.1, 17.0, 17.1, 17.3, 17.6], [0, 0, 0, 0, 0, 0, 0, 0, 0, 0, 1.5, 3.0, 13.6, 12.2, 10.7, 9.2, 7.8, 6.3, 4.9, 3.6, 2.5, 2.0, 2.5, 3.6, 14.4, 13.0, 11.6, 10.3, 9.0, 7.8, 6.7, 5.8, 5.2, 5.0, 5.2, 5.8, 15.2, 13.9, 12.6, 11.4, 10.3, 9.2, 8.3, 7.6, 7.2, 7.0, 7.2, 7.6, 16.8, 15.6, 14.5, 13.5, 12.5, 11.7, 11.0, 10.4, 10.1, 10.0, 10.1, 10.4, 18.1, 17.0, 15.9, 15.0, 14.2, 13.4, 12.8, 12.4, 12.1, 12.0, 12.1, 12.4, 20.2, 19.2, 18.3, 17.5, 16.8, 16.2, 15.7, 15.3, 15.1, 15.0, 15.1, 15.3, 21.7, 20.8, 20.0, 19.2, 18.6, 18.0, 17.6, 17.3, 17.1, 17.0, 17.1, 17.3], [0, 0, 0, 0, 0, 0, 0, 0, 0, 0, 0, 1.5, 15.1, 13.6, 12.2, 10.7, 9.2, 7.8, 6.3, 4.9, 3.6, 2.5, 2.0, 2.5, 15.8, 14.4, 13.0, 11.6, 10.3, 9.0, 7.8, 6.7, 5.8, 5.2, 5.0, 5.2, 16.6, 15.2, 13.9, 12.6, 11.4, 10.3, 9.2, 8.3, 7.6, 7.2, 7.0, 7.2, 18.0, 16.8, 15.6, 14.5, 13.5, 12.5, 11.7, 11.0, 10.4, 10.1, 10.0, 10.1, 19.2, 18.1, 17.0, 15.9, 15.0, 14.2, 13.4, 12.8, 12.4, 12.1, 12.0, 12.1, 21.2, 20.2, 19.2, 18.3, 17.5, 16.8, 16.2, 15.7, 15.3, 15.1, 15.0, 15.1, 22.7, 21.7, 20.8, 20.0, 19.2, 18.6, 18.0, 17.6, 17.3, 17.1, 17.0, 17.1], [0, 0, 0, 0, 0, 0, 0, 0, 0, 0, 0, 0, 16.6, 15.1, 13.6, 12.2, 10.7, 9.2, 7.8, 6.3, 4.9, 3.6, 2.5, 2.0, 17.2, 15.8, 14.4, 13.0, 11.6, 10.3, 9.0, 7.8, 6.7, 5.8, 5.2, 5.0, 17.9, 16.6, 15.2, 13.9, 12.6, 11.4, 10.3, 9.2, 8.3, 7.6, 7.2, 7.0, 19.3, 18.0, 16.8, 15.6, 14.5, 13.5, 12.5, 11.7, 11.0, 10.4, 10.1, 10.0, 20.4, 19.2, 18.1, 17.0, 15.9, 15.0, 14.2, 13.4, 12.8, 12.4, 12.1, 12.0, 22.3, 21.2, 20.2, 19.2, 18.3, 17.5, 16.8, 16.2, 15.7, 15.3, 15.1, 15.0, 23.7, 22.7, 21.7, 20.8, 20.0, 19.2, 18.6, 18.0, 17.6, 17.3, 17.1, 17.0], [0, 0, 0, 0, 0, 0, 0, 0, 0, 0, 0, 0, 0, 1.5, 3.0, 4.5, 6.0, 7.5, 9.0, 10.5, 12.0, 13.5, 15.0, 16.5, 3.0, 3.4, 4.2, 5.4, 6.7, 8.1, 9.5, 10.9, 12.4, 13.8, 15.3, 16.8, 5.0, 5.2, 5.8, 6.7, 7.8, 9.0, 10.3, 11.6, 13.0, 14.4, 15.8, 17.2, 8.0, 8.1, 8.5, 9.2, 10.0, 11.0, 12.0, 13.2, 14.4, 15.7, 17.0, 18.3, 10.0, 10.1, 10.4, 11.0, 11.7, 12.5, 13.5, 14.5, 15.6, 16.8, 18.0, 19.3, 13.0, 13.1, 13.3, 13.8, 14.3, 15.0, 15.8, 16.7, 17.7, 18.7, 19.8, 21.0, 15.0, 15.1, 15.3, 15.7, 16.2, 16.8, 17.5, 18.3, 19.2, 20.2, 21.2, 22.3], [0, 0, 0, 0, 0, 0, 0, 0, 0, 0, 0, 0, 0, 0, 1.5, 3.0, 4.5, 6.0, 7.5, 9.0, 10.5, 12.0, 13.5, 15.0, 3.4, 3.0, 3.4, 4.2, 5.4, 6.7, 8.1, 9.5, 10.9, 12.4, 13.8, 15.3, 5.2, 5.0, 5.2, 5.8, 6.7, 7.8, 9.0, 10.3, 11.6, 13.0, 14.4, 15.8, 8.1, 8.0, 8.1, 8.5, 9.2, 10.0, 11.0, 12.0, 13.2, 14.4, 15.7, 17.0, 10.1, 10.0, 10.1, 10.4, 11.0, 11.7, 12.5, 13.5, 14.5, 15.6, 16.8, 18.0, 13.1, 13.0, 13.1, 13.3, 13.8, 14.3, 15.0, 15.8, 16.7, 17.7, 18.7, 19.8, 15.1, 15.0, 15.1, 15.3, 15.7, 16.2, 16.8, 17.5, 18.3, 19.2, 20.2, 21.2], [0, 0, 0, 0, 0, 0, 0, 0, 0, 0, 0, 0, 0, 0, 0, 1.5, 3.0, 4.5, 6.0, 7.5, 9.0, 10.5, 12.0, 13.5, 4.2, 3.4, 3.0, 3.4, 4.2, 5.4, 6.7, 8.1, 9.5, 10.9, 12.4, 13.8, 5.8, 5.2, 5.0, 5.2, 5.8, 6.7, 7.8, 9.0, 10.3, 11.6, 13.0, 14.4, 8.5, 8.1, 8.0, 8.1, 8.5, 9.2, 10.0, 11.0, 12.0, 13.2, 14.4, 15.7, 10.4, 10.1, 10.0, 10.1, 10.4, 11.0, 11.7, 12.5, 13.5, 14.5, 15.6, 16.8, 13.3, 13.1, 13.0, 13.1, 13.3, 13.8, 14.3, 15.0, 15.8, 16.7, 17.7, 18.7, 15.3, 15.1, 15.0, 15.1, 15.3, 15.7, 16.2, 16.8, 17.5, 18.3, 19.2, 20.2], [0, 0, 0, 0, 0, 0, 0, 0, 0, 0, 0, 0, 0, 0, 0, 0, 1.5, 3.0, 4.5, 6.0, 7.5, 9.0, 10.5, 12.0, 5.4, 4.2, 3.4, 3.0, 3.4, 4.2, 5.4, 6.7, 8.1, 9.5, 10.9, 12.4, 6.7, 5.8, 5.2, 5.0, 5.2, 5.8, 6.7, 7.8, 9.0, 10.3, 11.6, 13.0, 9.2, 8.5, 8.1, 8.0, 8.1, 8.5, 9.2, 10.0, 11.0, 12.0, 13.2, 14.4, 11.0, 10.4, 10.1, 10.0, 10.1, 10.4, 11.0, 11.7, 12.5, 13.5, 14.5, 15.6, 13.8, 13.3, 13.1, 13.0, 13.1, 13.3, 13.8, 14.3, 15.0, 15.8, 16.7, 17.7, 15.7, 15.3, 15.1, 15.0, 15.1, 15.3, 15.7, 16.2, 16.8, 17.5, 18.3, 19.2], [0, 0, 0, 0, 0, 0, 0, 0, 0, 0, 0, 0, 0, 0, 0, 0, 0, 1.5, 3.0, 4.5, 6.0, 7.5, 9.0, 10.5, 6.7, 5.4, 4.2, 3.4, 3.0, 3.4, 4.2, 5.4, 6.7, 8.1, 9.5, 10.9, 7.8, 6.7, 5.8, 5.2, 5.0, 5.2, 5.8, 6.7, 7.8, 9.0, 10.3, 11.6, 10.0, 9.2, 8.5, 8.1, 8.0, 8.1, 8.5, 9.2, 10.0, 11.0, 12.0, 13.2, 11.7, 11.0, 10.4, 10.1, 10.0, 10.1, 10.4, 11.0, 11.7, 12.5, 13.5, 14.5, 14.3, 13.8, 13.3, 13.1, 13.0, 13.1, 13.3, 13.8, 14.3, 15.0, 15.8, 16.7, 16.2, 15.7, 15.3, 15.1, 15.0, 15.1, 15.3, 15.7, 16.2, 16.8, 17.5, 18.3], [0, 0, 0, 0, 0, 0, 0, 0, 0, 0, 0, 0, 0, 0, 0, 0, 0, 0, 1.5, 3.0, 4.5, 6.0, 7.5, 9.0, 8.1, 6.7, 5.4, 4.2, 3.4, 3.0, 3.4, 4.2, 5.4, 6.7, 8.1, 9.5, 9.0, 7.8, 6.7, 5.8, 5.2, 5.0, 5.2, 5.8, 6.7, 7.8, 9.0, 10.3, 11.0, 10.0, 9.2, 8.5, 8.1, 8.0, 8.1, 8.5, 9.2, 10.0, 11.0, 12.0, 12.5, 11.7, 11.0, 10.4, 10.1, 10.0, 10.1, 10.4, 11.0, 11.7, 12.5, 13.5, 15.0, 14.3, 13.8, 13.3, 13.1, 13.0, 13.1, 13.3, 13.8, 14.3, 15.0, 15.8, 16.8, 16.2, 15.7, 15.3, 15.1, 15.0, 15.1, 15.3, 15.7, 16.2, 16.8, 17.5], [0, 0, 0, 0, 0, 0, 0, 0, 0, 0, 0, 0, 0, 0, 0, 0, 0, 0, 0, 1.5, 3.0, 4.5, 6.0, 7.5, 9.5, 8.1, 6.7, 5.4, 4.2, 3.4, 3.0, 3.4, 4.2, 5.4, 6.7, 8.1, 10.3, 9.0, 7.8, 6.7, 5.8, 5.2, 5.0, 5.2, 5.8, 6.7, 7.8, 9.0, 12.0, 11.0, 10.0, 9.2, 8.5, 8.1, 8.0, 8.1, 8.5, 9.2, 10.0, 11.0, 13.5, 12.5, 11.7, 11.0, 10.4, 10.1, 10.0, 10.1, 10.4, 11.0, 11.7, 12.5, 15.8, 15.0, 14.3, 13.8, 13.3, 13.1, 13.0, 13.1, 13.3, 13.8, 14.3, 15.0, 17.5, 16.8, 16.2, 15.7, 15.3, 15.1, 15.0, 15.1, 15.3, 15.7, 16.2, 16.8], [0, 0, 0, 0, 0, 0, 0, 0, 0, 0, 0, 0, 0, 0, 0, 0, 0, 0, 0, 0, 1.5, 3.0, 4.5, 6.0, 10.9, 9.5, 8.1, 6.7, 5.4, 4.2, 3.4, 3.0, 3.4, 4.2, 5.4, 6.7, 11.6, 10.3, 9.0, 7.8, 6.7, 5.8, 5.2, 5.0, 5.2, 5.8, 6.7, 7.8, 13.2, 12.0, 11.0, 10.0, 9.2, 8.5, 8.1, 8.0, 8.1, 8.5, 9.2, 10.0, 14.5, 13.5, 12.5, 11.7, 11.0, 10.4, 10.1, 10.0, 10.1, 10.4, 11.0, 11.7, 16.7, 15.8, 15.0, 14.3, 13.8, 13.3, 13.1, 13.0, 13.1, 13.3, 13.8, 14.3, 18.3, 17.5, 16.8, 16.2, 15.7, 15.3, 15.1, 15.0, 15.1, 15.3, 15.7, 16.2], [0, 0, 0, 0, 0, 0, 0, 0, 0, 0, 0, 0, 0, 0, 0, 0, 0, 0, 0, 0, 0, 1.5, 3.0, 4.5, 12.4, 10.9, 9.5, 8.1, 6.7, 5.4, 4.2, 3.4, 3.0, 3.4, 4.2, 5.4, 13.0, 11.6, 10.3, 9.0, 7.8, 6.7, 5.8, 5.2, 5.0, 5.2, 5.8, 6.7, 14.4, 13.2, 12.0, 11.0, 10.0, 9.2, 8.5, 8.1, 8.0, 8.1, 8.5, 9.2, 15.6, 14.5, 13.5, 12.5, 11.7, 11.0, 10.4, 10.1, 10.0, 10.1, 10.4, 11.0, 17.7, 16.7, 15.8, 15.0, 14.3, 13.8, 13.3, 13.1, 13.0, 13.1, 13.3, 13.8, 19.2, 18.3, 17.5, 16.8, 16.2, 15.7, 15.3, 15.1, 15.0, 15.1, 15.3, 15.7], [0, 0, 0, 0, 0, 0, 0, 0, 0, 0, 0, 0, 0, 0, 0, 0, 0, 0, 0, 0, 0, 0, 1.5, 3.0, 13.8, 12.4, 10.9, 9.5, 8.1, 6.7, 5.4, 4.2, 3.4, 3.0, 3.4, 4.2, 14.4, 13.0, 11.6, 10.3, 9.0, 7.8, 6.7, 5.8, 5.2, 5.0, 5.2, 5.8, 15.7, 14.4, 13.2, 12.0, 11.0, 10.0, 9.2, 8.5, 8.1, 8.0, 8.1, 8.5, 16.8, 15.6, 14.5, 13.5, 12.5, 11.7, 11.0, 10.4, 10.1, 10.0, 10.1, 10.4, 18.7, 17.7, 16.7, 15.8, 15.0, 14.3, 13.8, 13.3, 13.1, 13.0, 13.1, 13.3, 20.2, 19.2, 18.3, 17.5, 16.8, 16.2, 15.7, 15.3, 15.1, 15.0, 15.1, 15.3], [0, 0, 0, 0, 0, 0, 0, 0, 0, 0, 0, 0, 0, 0, 0, 0, 0, 0, 0, 0, 0, 0, 0, 1.5, 15.3, 13.8, 12.4, 10.9, 9.5, 8.1, 6.7, 5.4, 4.2, 3.4, 3.0, 3.4, 15.8, 14.4, 13.0, 11.6, 10.3, 9.0, 7.8, 6.7, 5.8, 5.2, 5.0, 5.2, 17.0, 15.7, 14.4, 13.2, 12.0, 11.0, 10.0, 9.2, 8.5, 8.1, 8.0, 8.1, 18.0, 16.8, 15.6, 14.5, 13.5, 12.5, 11.7, 11.0, 10.4, 10.1, 10.0, 10.1, 19.8, 18.7, 17.7, 16.7, 15.8, 15.0, 14.3, 13.8, 13.3, 13.1, 13.0, 13.1, 21.2, 20.2, 19.2, 18.3, 17.5, 16.8, 16.2, 15.7, 15.3, 15.1, 15.0, 15.1], [0, 0, 0, 0, 0, 0, 0, 0, 0, 0, 0, 0, 0, 0, 0, 0, 0, 0, 0, 0, 0, 0, 0, 0, 16.8, 15.3, 13.8, 12.4, 10.9, 9.5, 8.1, 6.7, 5.4, 4.2, 3.4, 3.0, 17.2, 15.8, 14.4, 13.0, 11.6, 10.3, 9.0, 7.8, 6.7, 5.8, 5.2, 5.0, 18.3, 17.0, 15.7, 14.4, 13.2, 12.0, 11.0, 10.0, 9.2, 8.5, 8.1, 8.0, 19.3, 18.0, 16.8, 15.6, 14.5, 13.5, 12.5, 11.7, 11.0, 10.4, 10.1, 10.0, 21.0, 19.8, 18.7, 17.7, 16.7, 15.8, 15.0, 14.3, 13.8, 13.3, 13.1, 13.0, 22.3, 21.2, 20.2, 19.2, 18.3, 17.5, 16.8, 16.2, 15.7, 15.3, 15.1, 15.0], [0, 0, 0, 0, 0, 0, 0, 0, 0, 0, 0, 0, 0, 0, 0, 0, 0, 0, 0, 0, 0, 0, 0, 0, 0, 1.5, 3.0, 4.5, 6.0, 7.5, 9.0, 10.5, 12.0, 13.5, 15.0, 16.5, 2.0, 2.5, 3.6, 4.9, 6.3, 7.8, 9.2, 10.7, 12.2, 13.6, 15.1, 16.6, 5.0, 5.2, 5.8, 6.7, 7.8, 9.0, 10.3, 11.6, 13.0, 14.4, 15.8, 17.2, 7.0, 7.2, 7.6, 8.3, 9.2, 10.3, 11.4, 12.6, 13.9, 15.2, 16.6, 17.9, 10.0, 10.1, 10.4, 11.0, 11.7, 12.5, 13.5, 14.5, 15.6, 16.8, 18.0, 19.3, 12.0, 12.1, 12.4, 12.8, 13.4, 14.2, 15.0, 15.9, 17.0, 18.1, 19.2, 20.4], [0, 0, 0, 0, 0, 0, 0, 0, 0, 0, 0, 0, 0, 0, 0, 0, 0, 0, 0, 0, 0, 0, 0, 0, 0, 0, 1.5, 3.0, 4.5, 6.0, 7.5, 9.0, 10.5, 12.0, 13.5, 15.0, 2.5, 2.0, 2.5, 3.6, 4.9, 6.3, 7.8, 9.2, 10.7, 12.2, 13.6, 15.1, 5.2, 5.0, 5.2, 5.8, 6.7, 7.8, 9.0, 10.3, 11.6, 13.0, 14.4, 15.8, 7.2, 7.0, 7.2, 7.6, 8.3, 9.2, 10.3, 11.4, 12.6, 13.9, 15.2, 16.6, 10.1, 10.0, 10.1, 10.4, 11.0, 11.7, 12.5, 13.5, 14.5, 15.6, 16.8, 18.0, 12.1, 12.0, 12.1, 12.4, 12.8, 13.4, 14.2, 15.0, 15.9, 17.0, 18.1, 19.2], [0, 0, 0, 0, 0, 0, 0, 0, 0, 0, 0, 0, 0, 0, 0, 0, 0, 0, 0, 0, 0, 0, 0, 0, 0, 0, 0, 1.5, 3.0, 4.5, 6.0, 7.5, 9.0, 10.5, 12.0, 13.5, 3.6, 2.5, 2.0, 2.5, 3.6, 4.9, 6.3, 7.8, 9.2, 10.7, 12.2, 13.6, 5.8, 5.2, 5.0, 5.2, 5.8, 6.7, 7.8, 9.0, 10.3, 11.6, 13.0, 14.4, 7.6, 7.2, 7.0, 7.2, 7.6, 8.3, 9.2, 10.3, 11.4, 12.6, 13.9, 15.2, 10.4, 10.1, 10.0, 10.1, 10.4, 11.0, 11.7, 12.5, 13.5, 14.5, 15.6, 16.8, 12.4, 12.1, 12.0, 12.1, 12.4, 12.8, 13.4, 14.2, 15.0, 15.9, 17.0, 18.1], [0, 0, 0, 0, 0, 0, 0, 0, 0, 0, 0, 0, 0, 0, 0, 0, 0, 0, 0, 0, 0, 0, 0, 0, 0, 0, 0, 0, 1.5, 3.0, 4.5, 6.0, 7.5, 9.0, 10.5, 12.0, 4.9, 3.6, 2.5, 2.0, 2.5, 3.6, 4.9, 6.3, 7.8, 9.2, 10.7, 12.2, 6.7, 5.8, 5.2, 5.0, 5.2, 5.8, 6.7, 7.8, 9.0, 10.3, 11.6, 13.0, 8.3, 7.6, 7.2, 7.0, 7.2, 7.6, 8.3, 9.2, 10.3, 11.4, 12.6, 13.9, 11.0, 10.4, 10.1, 10.0, 10.1, 10.4, 11.0, 11.7, 12.5, 13.5, 14.5, 15.6, 12.8, 12.4, 12.1, 12.0, 12.1, 12.4, 12.8, 13.4, 14.2, 15.0, 15.9, 17.0], [0, 0, 0, 0, 0, 0, 0, 0, 0, 0, 0, 0, 0, 0, 0, 0, 0, 0, 0, 0, 0, 0, 0, 0, 0, 0, 0, 0, 0, 1.5, 3.0, 4.5, 6.0, 7.5, 9.0, 10.5, 6.3, 4.9, 3.6, 2.5, 2.0, 2.5, 3.6, 4.9, 6.3, 7.8, 9.2, 10.7, 7.8, 6.7, 5.8, 5.2, 5.0, 5.2, 5.8, 6.7, 7.8, 9.0, 10.3, 11.6, 9.2, 8.3, 7.6, 7.2, 7.0, 7.2, 7.6, 8.3, 9.2, 10.3, 11.4, 12.6, 11.7, 11.0, 10.4, 10.1, 10.0, 10.1, 10.4, 11.0, 11.7, 12.5, 13.5, 14.5, 13.4, 12.8, 12.4, 12.1, 12.0, 12.1, 12.4, 12.8, 13.4, 14.2, 15.0, 15.9], [0, 0, 0, 0, 0, 0, 0, 0, 0, 0, 0, 0, 0, 0, 0, 0, 0, 0, 0, 0, 0, 0, 0, 0, 0, 0, 0, 0, 0, 0, 1.5, 3.0, 4.5, 6.0, 7.5, 9.0, 7.8, 6.3, 4.9, 3.6, 2.5, 2.0, 2.5, 3.6, 4.9, 6.3, 7.8, 9.2, 9.0, 7.8, 6.7, 5.8, 5.2, 5.0, 5.2, 5.8, 6.7, 7.8, 9.0, 10.3, 10.3, 9.2, 8.3, 7.6, 7.2, 7.0, 7.2, 7.6, 8.3, 9.2, 10.3, 11.4, 12.5, 11.7, 11.0, 10.4, 10.1, 10.0, 10.1, 10.4, 11.0, 11.7, 12.5, 13.5, 14.2, 13.4, 12.8, 12.4, 12.1, 12.0, 12.1, 12.4, 12.8, 13.4, 14.2, 15.0], [0, 0, 0, 0, 0, 0, 0, 0, 0, 0, 0, 0, 0, 0, 0, 0, 0, 0, 0, 0, 0, 0, 0, 0, 0, 0, 0, 0, 0, 0, 0, 1.5, 3.0, 4.5, 6.0, 7.5, 9.2, 7.8, 6.3, 4.9, 3.6, 2.5, 2.0, 2.5, 3.6, 4.9, 6.3, 7.8, 10.3, 9.0, 7.8, 6.7, 5.8, 5.2, 5.0, 5.2, 5.8, 6.7, 7.8, 9.0, 11.4, 10.3, 9.2, 8.3, 7.6, 7.2, 7.0, 7.2, 7.6, 8.3, 9.2, 10.3, 13.5, 12.5, 11.7, 11.0, 10.4, 10.1, 10.0, 10.1, 10.4, 11.0, 11.7, 12.5, 15.0, 14.2, 13.4, 12.8, 12.4, 12.1, 12.0, 12.1, 12.4, 12.8, 13.4, 14.2], [0, 0, 0, 0, 0, 0, 0, 0, 0, 0, 0, 0, 0, 0, 0, 0, 0, 0, 0, 0, 0, 0, 0, 0, 0, 0, 0, 0, 0, 0, 0, 0, 1.5, 3.0, 4.5, 6.0, 10.7, 9.2, 7.8, 6.3, 4.9, 3.6, 2.5, 2.0, 2.5, 3.6, 4.9, 6.3, 11.6, 10.3, 9.0, 7.8, 6.7, 5.8, 5.2, 5.0, 5.2, 5.8, 6.7, 7.8, 12.6, 11.4, 10.3, 9.2, 8.3, 7.6, 7.2, 7.0, 7.2, 7.6, 8.3, 9.2, 14.5, 13.5, 12.5, 11.7, 11.0, 10.4, 10.1, 10.0, 10.1, 10.4, 11.0, 11.7, 15.9, 15.0, 14.2, 13.4, 12.8, 12.4, 12.1, 12.0, 12.1, 12.4, 12.8, 13.4], [0, 0, 0, 0, 0, 0, 0, 0, 0, 0, 0, 0, 0, 0, 0, 0, 0, 0, 0, 0, 0, 0, 0, 0, 0, 0, 0, 0, 0, 0, 0, 0, 0, 1.5, 3.0, 4.5, 12.2, 10.7, 9.2, 7.8, 6.3, 4.9, 3.6, 2.5, 2.0, 2.5, 3.6, 4.9, 13.0, 11.6, 10.3, 9.0, 7.8, 6.7, 5.8, 5.2, 5.0, 5.2, 5.8, 6.7, 13.9, 12.6, 11.4, 10.3, 9.2, 8.3, 7.6, 7.2, 7.0, 7.2, 7.6, 8.3, 15.6, 14.5, 13.5, 12.5, 11.7, 11.0, 10.4, 10.1, 10.0, 10.1, 10.4, 11.0, 17.0, 15.9, 15.0, 14.2, 13.4, 12.8, 12.4, 12.1, 12.0, 12.1, 12.4, 12.8], [0, 0, 0, 0, 0, 0, 0, 0, 0, 0, 0, 0, 0, 0, 0, 0, 0, 0, 0, 0, 0, 0, 0, 0, 0, 0, 0, 0, 0, 0, 0, 0, 0, 0, 1.5, 3.0, 13.6, 12.2, 10.7, 9.2, 7.8, 6.3, 4.9, 3.6, 2.5, 2.0, 2.5, 3.6, 14.4, 13.0, 11.6, 10.3, 9.0, 7.8, 6.7, 5.8, 5.2, 5.0, 5.2, 5.8, 15.2, 13.9, 12.6, 11.4, 10.3, 9.2, 8.3, 7.6, 7.2, 7.0, 7.2, 7.6, 16.8, 15.6, 14.5, 13.5, 12.5, 11.7, 11.0, 10.4, 10.1, 10.0, 10.1, 10.4, 18.1, 17.0, 15.9, 15.0, 14.2, 13.4, 12.8, 12.4, 12.1, 12.0, 12.1, 12.4], [0, 0, 0, 0, 0, 0, 0, 0, 0, 0, 0, 0, 0, 0, 0, 0, 0, 0, 0, 0, 0, 0, 0, 0, 0, 0, 0, 0, 0, 0, 0, 0, 0, 0, 0, 1.5, 15.1, 13.6, 12.2, 10.7, 9.2, 7.8, 6.3, 4.9, 3.6, 2.5, 2.0, 2.5, 15.8, 14.4, 13.0, 11.6, 10.3, 9.0, 7.8, 6.7, 5.8, 5.2, 5.0, 5.2, 16.6, 15.2, 13.9, 12.6, 11.4, 10.3, 9.2, 8.3, 7.6, 7.2, 7.0, 7.2, 18.0, 16.8, 15.6, 14.5, 13.5, 12.5, 11.7, 11.0, 10.4, 10.1, 10.0, 10.1, 19.2, 18.1, 17.0, 15.9, 15.0, 14.2, 13.4, 12.8, 12.4, 12.1, 12.0, 12.1], [0, 0, 0, 0, 0, 0, 0, 0, 0, 0, 0, 0, 0, 0, 0, 0, 0, 0, 0, 0, 0, 0, 0, 0, 0, 0, 0, 0, 0, 0, 0, 0, 0, 0, 0, 0, 16.6, 15.1, 13.6, 12.2, 10.7, 9.2, 7.8, 6.3, 4.9, 3.6, 2.5, 2.0, 17.2, 15.8, 14.4, 13.0, 11.6, 10.3, 9.0, 7.8, 6.7, 5.8, 5.2, 5.0, 17.9, 16.6, 15.2, 13.9, 12.6, 11.4, 10.3, 9.2, 8.3, 7.6, 7.2, 7.0, 19.3, 18.0, 16.8, 15.6, 14.5, 13.5, 12.5, 11.7, 11.0, 10.4, 10.1, 10.0, 20.4, 19.2, 18.1, 17.0, 15.9, 15.0, 14.2, 13.4, 12.8, 12.4, 12.1, 12.0], [0, 0, 0, 0, 0, 0, 0, 0, 0, 0, 0, 0, 0, 0, 0, 0, 0, 0, 0, 0, 0, 0, 0, 0, 0, 0, 0, 0, 0, 0, 0, 0, 0, 0, 0, 0, 0, 1.5, 3.0, 4.5, 6.0, 7.5, 9.0, 10.5, 12.0, 13.5, 15.0, 16.5, 3.0, 3.4, 4.2, 5.4, 6.7, 8.1, 9.5, 10.9, 12.4, 13.8, 15.3, 16.8, 5.0, 5.2, 5.8, 6.7, 7.8, 9.0, 10.3, 11.6, 13.0, 14.4, 15.8, 17.2, 8.0, 8.1, 8.5, 9.2, 10.0, 11.0, 12.0, 13.2, 14.4, 15.7, 17.0, 18.3, 10.0, 10.1, 10.4, 11.0, 11.7, 12.5, 13.5, 14.5, 15.6, 16.8, 18.0, 19.3], [0, 0, 0, 0, 0, 0, 0, 0, 0, 0, 0, 0, 0, 0, 0, 0, 0, 0, 0, 0, 0, 0, 0, 0, 0, 0, 0, 0, 0, 0, 0, 0, 0, 0, 0, 0, 0, 0, 1.5, 3.0, 4.5, 6.0, 7.5, 9.0, 10.5, 12.0, 13.5, 15.0, 3.4, 3.0, 3.4, 4.2, 5.4, 6.7, 8.1, 9.5, 10.9, 12.4, 13.8, 15.3, 5.2, 5.0, 5.2, 5.8, 6.7, 7.8, 9.0, 10.3, 11.6, 13.0, 14.4, 15.8, 8.1, 8.0, 8.1, 8.5, 9.2, 10.0, 11.0, 12.0, 13.2, 14.4, 15.7, 17.0, 10.1, 10.0, 10.1, 10.4, 11.0, 11.7, 12.5, 13.5, 14.5, 15.6, 16.8, 18.0], [0, 0, 0, 0, 0, 0, 0, 0, 0, 0, 0, 0, 0, 0, 0, 0, 0, 0, 0, 0, 0, 0, 0, 0, 0, 0, 0, 0, 0, 0, 0, 0, 0, 0, 0, 0, 0, 0, 0, 1.5, 3.0, 4.5, 6.0, 7.5, 9.0, 10.5, 12.0, 13.5, 4.2, 3.4, 3.0, 3.4, 4.2, 5.4, 6.7, 8.1, 9.5, 10.9, 12.4, 13.8, 5.8, 5.2, 5.0, 5.2, 5.8, 6.7, 7.8, 9.0, 10.3, 11.6, 13.0, 14.4, 8.5, 8.1, 8.0, 8.1, 8.5, 9.2, 10.0, 11.0, 12.0, 13.2, 14.4, 15.7, 10.4, 10.1, 10.0, 10.1, 10.4, 11.0, 11.7, 12.5, 13.5, 14.5, 15.6, 16.8], [0, 0, 0, 0, 0, 0, 0, 0, 0, 0, 0, 0, 0, 0, 0, 0, 0, 0, 0, 0, 0, 0, 0, 0, 0, 0, 0, 0, 0, 0, 0, 0, 0, 0, 0, 0, 0, 0, 0, 0, 1.5, 3.0, 4.5, 6.0, 7.5, 9.0, 10.5, 12.0, 5.4, 4.2, 3.4, 3.0, 3.4, 4.2, 5.4, 6.7, 8.1, 9.5, 10.9, 12.4, 6.7, 5.8, 5.2, 5.0, 5.2, 5.8, 6.7, 7.8, 9.0, 10.3, 11.6, 13.0, 9.2, 8.5, 8.1, 8.0, 8.1, 8.5, 9.2, 10.0, 11.0, 12.0, 13.2, 14.4, 11.0, 10.4, 10.1, 10.0, 10.1, 10.4, 11.0, 11.7, 12.5, 13.5, 14.5, 15.6], [0, 0, 0, 0, 0, 0, 0, 0, 0, 0, 0, 0, 0, 0, 0, 0, 0, 0, 0, 0, 0, 0, 0, 0, 0, 0, 0, 0, 0, 0, 0, 0, 0, 0, 0, 0, 0, 0, 0, 0, 0, 1.5, 3.0, 4.5, 6.0, 7.5, 9.0, 10.5, 6.7, 5.4, 4.2, 3.4, 3.0, 3.4, 4.2, 5.4, 6.7, 8.1, 9.5, 10.9, 7.8, 6.7, 5.8, 5.2, 5.0, 5.2, 5.8, 6.7, 7.8, 9.0, 10.3, 11.6, 10.0, 9.2, 8.5, 8.1, 8.0, 8.1, 8.5, 9.2, 10.0, 11.0, 12.0, 13.2, 11.7, 11.0, 10.4, 10.1, 10.0, 10.1, 10.4, 11.0, 11.7, 12.5, 13.5, 14.5], [0, 0, 0, 0, 0, 0, 0, 0, 0, 0, 0, 0, 0, 0, 0, 0, 0, 0, 0, 0, 0, 0, 0, 0, 0, 0, 0, 0, 0, 0, 0, 0, 0, 0, 0, 0, 0, 0, 0, 0, 0, 0, 1.5, 3.0, 4.5, 6.0, 7.5, 9.0, 8.1, 6.7, 5.4, 4.2, 3.4, 3.0, 3.4, 4.2, 5.4, 6.7, 8.1, 9.5, 9.0, 7.8, 6.7, 5.8, 5.2, 5.0, 5.2, 5.8, 6.7, 7.8, 9.0, 10.3, 11.0, 10.0, 9.2, 8.5, 8.1, 8.0, 8.1, 8.5, 9.2, 10.0, 11.0, 12.0, 12.5, 11.7, 11.0, 10.4, 10.1, 10.0, 10.1, 10.4, 11.0, 11.7, 12.5, 13.5], [0, 0, 0, 0, 0, 0, 0, 0, 0, 0, 0, 0, 0, 0, 0, 0, 0, 0, 0, 0, 0, 0, 0, 0, 0, 0, 0, 0, 0, 0, 0, 0, 0, 0, 0, 0, 0, 0, 0, 0, 0, 0, 0, 1.5, 3.0, 4.5, 6.0, 7.5, 9.5, 8.1, 6.7, 5.4, 4.2, 3.4, 3.0, 3.4, 4.2, 5.4, 6.7, 8.1, 10.3, 9.0, 7.8, 6.7, 5.8, 5.2, 5.0, 5.2, 5.8, 6.7, 7.8, 9.0, 12.0, 11.0, 10.0, 9.2, 8.5, 8.1, 8.0, 8.1, 8.5, 9.2, 10.0, 11.0, 13.5, 12.5, 11.7, 11.0, 10.4, 10.1, 10.0, 10.1, 10.4, 11.0, 11.7, 12.5], [0, 0, 0, 0, 0, 0, 0, 0, 0, 0, 0, 0, 0, 0, 0, 0, 0, 0, 0, 0, 0, 0, 0, 0, 0, 0, 0, 0, 0, 0, 0, 0, 0, 0, 0, 0, 0, 0, 0, 0, 0, 0, 0, 0, 1.5, 3.0, 4.5, 6.0, 10.9, 9.5, 8.1, 6.7, 5.4, 4.2, 3.4, 3.0, 3.4, 4.2, 5.4, 6.7, 11.6, 10.3, 9.0, 7.8, 6.7, 5.8, 5.2, 5.0, 5.2, 5.8, 6.7, 7.8, 13.2, 12.0, 11.0, 10.0, 9.2, 8.5, 8.1, 8.0, 8.1, 8.5, 9.2, 10.0, 14.5, 13.5, 12.5, 11.7, 11.0, 10.4, 10.1, 10.0, 10.1, 10.4, 11.0, 11.7], [0, 0, 0, 0, 0, 0, 0, 0, 0, 0, 0, 0, 0, 0, 0, 0, 0, 0, 0, 0, 0, 0, 0, 0, 0, 0, 0, 0, 0, 0, 0, 0, 0, 0, 0, 0, 0, 0, 0, 0, 0, 0, 0, 0, 0, 1.5, 3.0, 4.5, 12.4, 10.9, 9.5, 8.1, 6.7, 5.4, 4.2, 3.4, 3.0, 3.4, 4.2, 5.4, 13.0, 11.6, 10.3, 9.0, 7.8, 6.7, 5.8, 5.2, 5.0, 5.2, 5.8, 6.7, 14.4, 13.2, 12.0, 11.0, 10.0, 9.2, 8.5, 8.1, 8.0, 8.1, 8.5, 9.2, 15.6, 14.5, 13.5, 12.5, 11.7, 11.0, 10.4, 10.1, 10.0, 10.1, 10.4, 11.0], [0, 0, 0, 0, 0, 0, 0, 0, 0, 0, 0, 0, 0, 0, 0, 0, 0, 0, 0, 0, 0, 0, 0, 0, 0, 0, 0, 0, 0, 0, 0, 0, 0, 0, 0, 0, 0, 0, 0, 0, 0, 0, 0, 0, 0, 0, 1.5, 3.0, 13.8, 12.4, 10.9, 9.5, 8.1, 6.7, 5.4, 4.2, 3.4, 3.0, 3.4, 4.2, 14.4, 13.0, 11.6, 10.3, 9.0, 7.8, 6.7, 5.8, 5.2, 5.0, 5.2, 5.8, 15.7, 14.4, 13.2, 12.0, 11.0, 10.0, 9.2, 8.5, 8.1, 8.0, 8.1, 8.5, 16.8, 15.6, 14.5, 13.5, 12.5, 11.7, 11.0, 10.4, 10.1, 10.0, 10.1, 10.4], [0, 0, 0, 0, 0, 0, 0, 0, 0, 0, 0, 0, 0, 0, 0, 0, 0, 0, 0, 0, 0, 0, 0, 0, 0, 0, 0, 0, 0, 0, 0, 0, 0, 0, 0, 0, 0, 0, 0, 0, 0, 0, 0, 0, 0, 0, 0, 1.5, 15.3, 13.8, 12.4, 10.9, 9.5, 8.1, 6.7, 5.4, 4.2, 3.4, 3.0, 3.4, 15.8, 14.4, 13.0, 11.6, 10.3, 9.0, 7.8, 6.7, 5.8, 5.2, 5.0, 5.2, 17.0, 15.7, 14.4, 13.2, 12.0, 11.0, 10.0, 9.2, 8.5, 8.1, 8.0, 8.1, 18.0, 16.8, 15.6, 14.5, 13.5, 12.5, 11.7, 11.0, 10.4, 10.1, 10.0, 10.1], [0, 0, 0, 0, 0, 0, 0, 0, 0, 0, 0, 0, 0, 0, 0, 0, 0, 0, 0, 0, 0, 0, 0, 0, 0, 0, 0, 0, 0, 0, 0, 0, 0, 0, 0, 0, 0, 0, 0, 0, 0, 0, 0, 0, 0, 0, 0, 0, 16.8, 15.3, 13.8, 12.4, 10.9, 9.5, 8.1, 6.7, 5.4, 4.2, 3.4, 3.0, 17.2, 15.8, 14.4, 13.0, 11.6, 10.3, 9.0, 7.8, 6.7, 5.8, 5.2, 5.0, 18.3, 17.0, 15.7, 14.4, 13.2, 12.0, 11.0, 10.0, 9.2, 8.5, 8.1, 8.0, 19.3, 18.0, 16.8, 15.6, 14.5, 13.5, 12.5, 11.7, 11.0, 10.4, 10.1, 10.0], [0, 0, 0, 0, 0, 0, 0, 0, 0, 0, 0, 0, 0, 0, 0, 0, 0, 0, 0, 0, 0, 0, 0, 0, 0, 0, 0, 0, 0, 0, 0, 0, 0, 0, 0, 0, 0, 0, 0, 0, 0, 0, 0, 0, 0, 0, 0, 0, 0, 1.5, 3.0, 4.5, 6.0, 7.5, 9.0, 10.5, 12.0, 13.5, 15.0, 16.5, 2.0, 2.5, 3.6, 4.9, 6.3, 7.8, 9.2, 10.7, 12.2, 13.6, 15.1, 16.6, 5.0, 5.2, 5.8, 6.7, 7.8, 9.0, 10.3, 11.6, 13.0, 14.4, 15.8, 17.2, 7.0, 7.2, 7.6, 8.3, 9.2, 10.3, 11.4, 12.6, 13.9, 15.2, 16.6, 17.9], [0, 0, 0, 0, 0, 0, 0, 0, 0, 0, 0, 0, 0, 0, 0, 0, 0, 0, 0, 0, 0, 0, 0, 0, 0, 0, 0, 0, 0, 0, 0, 0, 0, 0, 0, 0, 0, 0, 0, 0, 0, 0, 0, 0, 0, 0, 0, 0, 0, 0, 1.5, 3.0, 4.5, 6.0, 7.5, 9.0, 10.5, 12.0, 13.5, 15.0, 2.5, 2.0, 2.5, 3.6, 4.9, 6.3, 7.8, 9.2, 10.7, 12.2, 13.6, 15.1, 5.2, 5.0, 5.2, 5.8, 6.7, 7.8, 9.0, 10.3, 11.6, 13.0, 14.4, 15.8, 7.2, 7.0, 7.2, 7.6, 8.3, 9.2, 10.3, 11.4, 12.6, 13.9, 15.2, 16.6], [0, 0, 0, 0, 0, 0, 0, 0, 0, 0, 0, 0, 0, 0, 0, 0, 0, 0, 0, 0, 0, 0, 0, 0, 0, 0, 0, 0, 0, 0, 0, 0, 0, 0, 0, 0, 0, 0, 0, 0, 0, 0, 0, 0, 0, 0, 0, 0, 0, 0, 0, 1.5, 3.0, 4.5, 6.0, 7.5, 9.0, 10.5, 12.0, 13.5, 3.6, 2.5, 2.0, 2.5, 3.6, 4.9, 6.3, 7.8, 9.2, 10.7, 12.2, 13.6, 5.8, 5.2, 5.0, 5.2, 5.8, 6.7, 7.8, 9.0, 10.3, 11.6, 13.0, 14.4, 7.6, 7.2, 7.0, 7.2, 7.6, 8.3, 9.2, 10.3, 11.4, 12.6, 13.9, 15.2], [0, 0, 0, 0, 0, 0, 0, 0, 0, 0, 0, 0, 0, 0, 0, 0, 0, 0, 0, 0, 0, 0, 0, 0, 0, 0, 0, 0, 0, 0, 0, 0, 0, 0, 0, 0, 0, 0, 0, 0, 0, 0, 0, 0, 0, 0, 0, 0, 0, 0, 0, 0, 1.5, 3.0, 4.5, 6.0, 7.5, 9.0, 10.5, 12.0, 4.9, 3.6, 2.5, 2.0, 2.5, 3.6, 4.9, 6.3, 7.8, 9.2, 10.7, 12.2, 6.7, 5.8, 5.2, 5.0, 5.2, 5.8, 6.7, 7.8, 9.0, 10.3, 11.6, 13.0, 8.3, 7.6, 7.2, 7.0, 7.2, 7.6, 8.3, 9.2, 10.3, 11.4, 12.6, 13.9], [0, 0, 0, 0, 0, 0, 0, 0, 0, 0, 0, 0, 0, 0, 0, 0, 0, 0, 0, 0, 0, 0, 0, 0, 0, 0, 0, 0, 0, 0, 0, 0, 0, 0, 0, 0, 0, 0, 0, 0, 0, 0, 0, 0, 0, 0, 0, 0, 0, 0, 0, 0, 0, 1.5, 3.0, 4.5, 6.0, 7.5, 9.0, 10.5, 6.3, 4.9, 3.6, 2.5, 2.0, 2.5, 3.6, 4.9, 6.3, 7.8, 9.2, 10.7, 7.8, 6.7, 5.8, 5.2, 5.0, 5.2, 5.8, 6.7, 7.8, 9.0, 10.3, 11.6, 9.2, 8.3, 7.6, 7.2, 7.0, 7.2, 7.6, 8.3, 9.2, 10.3, 11.4, 12.6], [0, 0, 0, 0, 0, 0, 0, 0, 0, 0, 0, 0, 0, 0, 0, 0, 0, 0, 0, 0, 0, 0, 0, 0, 0, 0, 0, 0, 0, 0, 0, 0, 0, 0, 0, 0, 0, 0, 0, 0, 0, 0, 0, 0, 0, 0, 0, 0, 0, 0, 0, 0, 0, 0, 1.5, 3.0, 4.5, 6.0, 7.5, 9.0, 7.8, 6.3, 4.9, 3.6, 2.5, 2.0, 2.5, 3.6, 4.9, 6.3, 7.8, 9.2, 9.0, 7.8, 6.7, 5.8, 5.2, 5.0, 5.2, 5.8, 6.7, 7.8, 9.0, 10.3, 10.3, 9.2, 8.3, 7.6, 7.2, 7.0, 7.2, 7.6, 8.3, 9.2, 10.3, 11.4], [0, 0, 0, 0, 0, 0, 0, 0, 0, 0, 0, 0, 0, 0, 0, 0, 0, 0, 0, 0, 0, 0, 0, 0, 0, 0, 0, 0, 0, 0, 0, 0, 0, 0, 0, 0, 0, 0, 0, 0, 0, 0, 0, 0, 0, 0, 0, 0, 0, 0, 0, 0, 0, 0, 0, 1.5, 3.0, 4.5, 6.0, 7.5, 9.2, 7.8, 6.3, 4.9, 3.6, 2.5, 2.0, 2.5, 3.6, 4.9, 6.3, 7.8, 10.3, 9.0, 7.8, 6.7, 5.8, 5.2, 5.0, 5.2, 5.8, 6.7, 7.8, 9.0, 11.4, 10.3, 9.2, 8.3, 7.6, 7.2, 7.0, 7.2, 7.6, 8.3, 9.2, 10.3], [0, 0, 0, 0, 0, 0, 0, 0, 0, 0, 0, 0, 0, 0, 0, 0, 0, 0, 0, 0, 0, 0, 0, 0, 0, 0, 0, 0, 0, 0, 0, 0, 0, 0, 0, 0, 0, 0, 0, 0, 0, 0, 0, 0, 0, 0, 0, 0, 0, 0, 0, 0, 0, 0, 0, 0, 1.5, 3.0, 4.5, 6.0, 10.7, 9.2, 7.8, 6.3, 4.9, 3.6, 2.5, 2.0, 2.5, 3.6, 4.9, 6.3, 11.6, 10.3, 9.0, 7.8, 6.7, 5.8, 5.2, 5.0, 5.2, 5.8, 6.7, 7.8, 12.6, 11.4, 10.3, 9.2, 8.3, 7.6, 7.2, 7.0, 7.2, 7.6, 8.3, 9.2], [0, 0, 0, 0, 0, 0, 0, 0, 0, 0, 0, 0, 0, 0, 0, 0, 0, 0, 0, 0, 0, 0, 0, 0, 0, 0, 0, 0, 0, 0, 0, 0, 0, 0, 0, 0, 0, 0, 0, 0, 0, 0, 0, 0, 0, 0, 0, 0, 0, 0, 0, 0, 0, 0, 0, 0, 0, 1.5, 3.0, 4.5, 12.2, 10.7, 9.2, 7.8, 6.3, 4.9, 3.6, 2.5, 2.0, 2.5, 3.6, 4.9, 13.0, 11.6, 10.3, 9.0, 7.8, 6.7, 5.8, 5.2, 5.0, 5.2, 5.8, 6.7, 13.9, 12.6, 11.4, 10.3, 9.2, 8.3, 7.6, 7.2, 7.0, 7.2, 7.6, 8.3], [0, 0, 0, 0, 0, 0, 0, 0, 0, 0, 0, 0, 0, 0, 0, 0, 0, 0, 0, 0, 0, 0, 0, 0, 0, 0, 0, 0, 0, 0, 0, 0, 0, 0, 0, 0, 0, 0, 0, 0, 0, 0, 0, 0, 0, 0, 0, 0, 0, 0, 0, 0, 0, 0, 0, 0, 0, 0, 1.5, 3.0, 13.6, 12.2, 10.7, 9.2, 7.8, 6.3, 4.9, 3.6, 2.5, 2.0, 2.5, 3.6, 14.4, 13.0, 11.6, 10.3, 9.0, 7.8, 6.7, 5.8, 5.2, 5.0, 5.2, 5.8, 15.2, 13.9, 12.6, 11.4, 10.3, 9.2, 8.3, 7.6, 7.2, 7.0, 7.2, 7.6], [0, 0, 0, 0, 0, 0, 0, 0, 0, 0, 0, 0, 0, 0, 0, 0, 0, 0, 0, 0, 0, 0, 0, 0, 0, 0, 0, 0, 0, 0, 0, 0, 0, 0, 0, 0, 0, 0, 0, 0, 0, 0, 0, 0, 0, 0, 0, 0, 0, 0, 0, 0, 0, 0, 0, 0, 0, 0, 0, 1.5, 15.1, 13.6, 12.2, 10.7, 9.2, 7.8, 6.3, 4.9, 3.6, 2.5, 2.0, 2.5, 15.8, 14.4, 13.0, 11.6, 10.3, 9.0, 7.8, 6.7, 5.8, 5.2, 5.0, 5.2, 16.6, 15.2, 13.9, 12.6, 11.4, 10.3, 9.2, 8.3, 7.6, 7.2, 7.0, 7.2], [0, 0, 0, 0, 0, 0, 0, 0, 0, 0, 0, 0, 0, 0, 0, 0, 0, 0, 0, 0, 0, 0, 0, 0, 0, 0, 0, 0, 0, 0, 0, 0, 0, 0, 0, 0, 0, 0, 0, 0, 0, 0, 0, 0, 0, 0, 0, 0, 0, 0, 0, 0, 0, 0, 0, 0, 0, 0, 0, 0, 16.6, 15.1, 13.6, 12.2, 10.7, 9.2, 7.8, 6.3, 4.9, 3.6, 2.5, 2.0, 17.2, 15.8, 14.4, 13.0, 11.6, 10.3, 9.0, 7.8, 6.7, 5.8, 5.2, 5.0, 17.9, 16.6, 15.2, 13.9, 12.6, 11.4, 10.3, 9.2, 8.3, 7.6, 7.2, 7.0], [0, 0, 0, 0, 0, 0, 0, 0, 0, 0, 0, 0, 0, 0, 0, 0, 0, 0, 0, 0, 0, 0, 0, 0, 0, 0, 0, 0, 0, 0, 0, 0, 0, 0, 0, 0, 0, 0, 0, 0, 0, 0, 0, 0, 0, 0, 0, 0, 0, 0, 0, 0, 0, 0, 0, 0, 0, 0, 0, 0, 0, 1.5, 3.0, 4.5, 6.0, 7.5, 9.0, 10.5, 12.0, 13.5, 15.0, 16.5, 3.0, 3.4, 4.2, 5.4, 6.7, 8.1, 9.5, 10.9, 12.4, 13.8, 15.3, 16.8, 5.0, 5.2, 5.8, 6.7, 7.8, 9.0, 10.3, 11.6, 13.0, 14.4, 15.8, 17.2], [0, 0, 0, 0, 0, 0, 0, 0, 0, 0, 0, 0, 0, 0, 0, 0, 0, 0, 0, 0, 0, 0, 0, 0, 0, 0, 0, 0, 0, 0, 0, 0, 0, 0, 0, 0, 0, 0, 0, 0, 0, 0, 0, 0, 0, 0, 0, 0, 0, 0, 0, 0, 0, 0, 0, 0, 0, 0, 0, 0, 0, 0, 1.5, 3.0, 4.5, 6.0, 7.5, 9.0, 10.5, 12.0, 13.5, 15.0, 3.4, 3.0, 3.4, 4.2, 5.4, 6.7, 8.1, 9.5, 10.9, 12.4, 13.8, 15.3, 5.2, 5.0, 5.2, 5.8, 6.7, 7.8, 9.0, 10.3, 11.6, 13.0, 14.4, 15.8], [0, 0, 0, 0, 0, 0, 0, 0, 0, 0, 0, 0, 0, 0, 0, 0, 0, 0, 0, 0, 0, 0, 0, 0, 0, 0, 0, 0, 0, 0, 0, 0, 0, 0, 0, 0, 0, 0, 0, 0, 0, 0, 0, 0, 0, 0, 0, 0, 0, 0, 0, 0, 0, 0, 0, 0, 0, 0, 0, 0, 0, 0, 0, 1.5, 3.0, 4.5, 6.0, 7.5, 9.0, 10.5, 12.0, 13.5, 4.2, 3.4, 3.0, 3.4, 4.2, 5.4, 6.7, 8.1, 9.5, 10.9, 12.4, 13.8, 5.8, 5.2, 5.0, 5.2, 5.8, 6.7, 7.8, 9.0, 10.3, 11.6, 13.0, 14.4], [0, 0, 0, 0, 0, 0, 0, 0, 0, 0, 0, 0, 0, 0, 0, 0, 0, 0, 0, 0, 0, 0, 0, 0, 0, 0, 0, 0, 0, 0, 0, 0, 0, 0, 0, 0, 0, 0, 0, 0, 0, 0, 0, 0, 0, 0, 0, 0, 0, 0, 0, 0, 0, 0, 0, 0, 0, 0, 0, 0, 0, 0, 0, 0, 1.5, 3.0, 4.5, 6.0, 7.5, 9.0, 10.5, 12.0, 5.4, 4.2, 3.4, 3.0, 3.4, 4.2, 5.4, 6.7, 8.1, 9.5, 10.9, 12.4, 6.7, 5.8, 5.2, 5.0, 5.2, 5.8, 6.7, 7.8, 9.0, 10.3, 11.6, 13.0], [0, 0, 0, 0, 0, 0, 0, 0, 0, 0, 0, 0, 0, 0, 0, 0, 0, 0, 0, 0, 0, 0, 0, 0, 0, 0, 0, 0, 0, 0, 0, 0, 0, 0, 0, 0, 0, 0, 0, 0, 0, 0, 0, 0, 0, 0, 0, 0, 0, 0, 0, 0, 0, 0, 0, 0, 0, 0, 0, 0, 0, 0, 0, 0, 0, 1.5, 3.0, 4.5, 6.0, 7.5, 9.0, 10.5, 6.7, 5.4, 4.2, 3.4, 3.0, 3.4, 4.2, 5.4, 6.7, 8.1, 9.5, 10.9, 7.8, 6.7, 5.8, 5.2, 5.0, 5.2, 5.8, 6.7, 7.8, 9.0, 10.3, 11.6], [0, 0, 0, 0, 0, 0, 0, 0, 0, 0, 0, 0, 0, 0, 0, 0, 0, 0, 0, 0, 0, 0, 0, 0, 0, 0, 0, 0, 0, 0, 0, 0, 0, 0, 0, 0, 0, 0, 0, 0, 0, 0, 0, 0, 0, 0, 0, 0, 0, 0, 0, 0, 0, 0, 0, 0, 0, 0, 0, 0, 0, 0, 0, 0, 0, 0, 1.5, 3.0, 4.5, 6.0, 7.5, 9.0, 8.1, 6.7, 5.4, 4.2, 3.4, 3.0, 3.4, 4.2, 5.4, 6.7, 8.1, 9.5, 9.0, 7.8, 6.7, 5.8, 5.2, 5.0, 5.2, 5.8, 6.7, 7.8, 9.0, 10.3], [0, 0, 0, 0, 0, 0, 0, 0, 0, 0, 0, 0, 0, 0, 0, 0, 0, 0, 0, 0, 0, 0, 0, 0, 0, 0, 0, 0, 0, 0, 0, 0, 0, 0, 0, 0, 0, 0, 0, 0, 0, 0, 0, 0, 0, 0, 0, 0, 0, 0, 0, 0, 0, 0, 0, 0, 0, 0, 0, 0, 0, 0, 0, 0, 0, 0, 0, 1.5, 3.0, 4.5, 6.0, 7.5, 9.5, 8.1, 6.7, 5.4, 4.2, 3.4, 3.0, 3.4, 4.2, 5.4, 6.7, 8.1, 10.3, 9.0, 7.8, 6.7, 5.8, 5.2, 5.0, 5.2, 5.8, 6.7, 7.8, 9.0], [0, 0, 0, 0, 0, 0, 0, 0, 0, 0, 0, 0, 0, 0, 0, 0, 0, 0, 0, 0, 0, 0, 0, 0, 0, 0, 0, 0, 0, 0, 0, 0, 0, 0, 0, 0, 0, 0, 0, 0, 0, 0, 0, 0, 0, 0, 0, 0, 0, 0, 0, 0, 0, 0, 0, 0, 0, 0, 0, 0, 0, 0, 0, 0, 0, 0, 0, 0, 1.5, 3.0, 4.5, 6.0, 10.9, 9.5, 8.1, 6.7, 5.4, 4.2, 3.4, 3.0, 3.4, 4.2, 5.4, 6.7, 11.6, 10.3, 9.0, 7.8, 6.7, 5.8, 5.2, 5.0, 5.2, 5.8, 6.7, 7.8], [0, 0, 0, 0, 0, 0, 0, 0, 0, 0, 0, 0, 0, 0, 0, 0, 0, 0, 0, 0, 0, 0, 0, 0, 0, 0, 0, 0, 0, 0, 0, 0, 0, 0, 0, 0, 0, 0, 0, 0, 0, 0, 0, 0, 0, 0, 0, 0, 0, 0, 0, 0, 0, 0, 0, 0, 0, 0, 0, 0, 0, 0, 0, 0, 0, 0, 0, 0, 0, 1.5, 3.0, 4.5, 12.4, 10.9, 9.5, 8.1, 6.7, 5.4, 4.2, 3.4, 3.0, 3.4, 4.2, 5.4, 13.0, 11.6, 10.3, 9.0, 7.8, 6.7, 5.8, 5.2, 5.0, 5.2, 5.8, 6.7], [0, 0, 0, 0, 0, 0, 0, 0, 0, 0, 0, 0, 0, 0, 0, 0, 0, 0, 0, 0, 0, 0, 0, 0, 0, 0, 0, 0, 0, 0, 0, 0, 0, 0, 0, 0, 0, 0, 0, 0, 0, 0, 0, 0, 0, 0, 0, 0, 0, 0, 0, 0, 0, 0, 0, 0, 0, 0, 0, 0, 0, 0, 0, 0, 0, 0, 0, 0, 0, 0, 1.5, 3.0, 13.8, 12.4, 10.9, 9.5, 8.1, 6.7, 5.4, 4.2, 3.4, 3.0, 3.4, 4.2, 14.4, 13.0, 11.6, 10.3, 9.0, 7.8, 6.7, 5.8, 5.2, 5.0, 5.2, 5.8], [0, 0, 0, 0, 0, 0, 0, 0, 0, 0, 0, 0, 0, 0, 0, 0, 0, 0, 0, 0, 0, 0, 0, 0, 0, 0, 0, 0, 0, 0, 0, 0, 0, 0, 0, 0, 0, 0, 0, 0, 0, 0, 0, 0, 0, 0, 0, 0, 0, 0, 0, 0, 0, 0, 0, 0, 0, 0, 0, 0, 0, 0, 0, 0, 0, 0, 0, 0, 0, 0, 0, 1.5, 15.3, 13.8, 12.4, 10.9, 9.5, 8.1, 6.7, 5.4, 4.2, 3.4, 3.0, 3.4, 15.8, 14.4, 13.0, 11.6, 10.3, 9.0, 7.8, 6.7, 5.8, 5.2, 5.0, 5.2], [0, 0, 0, 0, 0, 0, 0, 0, 0, 0, 0, 0, 0, 0, 0, 0, 0, 0, 0, 0, 0, 0, 0, 0, 0, 0, 0, 0, 0, 0, 0, 0, 0, 0, 0, 0, 0, 0, 0, 0, 0, 0, 0, 0, 0, 0, 0, 0, 0, 0, 0, 0, 0, 0, 0, 0, 0, 0, 0, 0, 0, 0, 0, 0, 0, 0, 0, 0, 0, 0, 0, 0, 16.8, 15.3, 13.8, 12.4, 10.9, 9.5, 8.1, 6.7, 5.4, 4.2, 3.4, 3.0, 17.2, 15.8, 14.4, 13.0, 11.6, 10.3, 9.0, 7.8, 6.7, 5.8, 5.2, 5.0], [0, 0, 0, 0, 0, 0, 0, 0, 0, 0, 0, 0, 0, 0, 0, 0, 0, 0, 0, 0, 0, 0, 0, 0, 0, 0, 0, 0, 0, 0, 0, 0, 0, 0, 0, 0, 0, 0, 0, 0, 0, 0, 0, 0, 0, 0, 0, 0, 0, 0, 0, 0, 0, 0, 0, 0, 0, 0, 0, 0, 0, 0, 0, 0, 0, 0, 0, 0, 0, 0, 0, 0, 0, 1.5, 3.0, 4.5, 6.0, 7.5, 9.0, 10.5, 12.0, 13.5, 15.0, 16.5, 2.0, 2.5, 3.6, 4.9, 6.3, 7.8, 9.2, 10.7, 12.2, 13.6, 15.1, 16.6], [0, 0, 0, 0, 0, 0, 0, 0, 0, 0, 0, 0, 0, 0, 0, 0, 0, 0, 0, 0, 0, 0, 0, 0, 0, 0, 0, 0, 0, 0, 0, 0, 0, 0, 0, 0, 0, 0, 0, 0, 0, 0, 0, 0, 0, 0, 0, 0, 0, 0, 0, 0, 0, 0, 0, 0, 0, 0, 0, 0, 0, 0, 0, 0, 0, 0, 0, 0, 0, 0, 0, 0, 0, 0, 1.5, 3.0, 4.5, 6.0, 7.5, 9.0, 10.5, 12.0, 13.5, 15.0, 2.5, 2.0, 2.5, 3.6, 4.9, 6.3, 7.8, 9.2, 10.7, 12.2, 13.6, 15.1], [0, 0, 0, 0, 0, 0, 0, 0, 0, 0, 0, 0, 0, 0, 0, 0, 0, 0, 0, 0, 0, 0, 0, 0, 0, 0, 0, 0, 0, 0, 0, 0, 0, 0, 0, 0, 0, 0, 0, 0, 0, 0, 0, 0, 0, 0, 0, 0, 0, 0, 0, 0, 0, 0, 0, 0, 0, 0, 0, 0, 0, 0, 0, 0, 0, 0, 0, 0, 0, 0, 0, 0, 0, 0, 0, 1.5, 3.0, 4.5, 6.0, 7.5, 9.0, 10.5, 12.0, 13.5, 3.6, 2.5, 2.0, 2.5, 3.6, 4.9, 6.3, 7.8, 9.2, 10.7, 12.2, 13.6], [0, 0, 0, 0, 0, 0, 0, 0, 0, 0, 0, 0, 0, 0, 0, 0, 0, 0, 0, 0, 0, 0, 0, 0, 0, 0, 0, 0, 0, 0, 0, 0, 0, 0, 0, 0, 0, 0, 0, 0, 0, 0, 0, 0, 0, 0, 0, 0, 0, 0, 0, 0, 0, 0, 0, 0, 0, 0, 0, 0, 0, 0, 0, 0, 0, 0, 0, 0, 0, 0, 0, 0, 0, 0, 0, 0, 1.5, 3.0, 4.5, 6.0, 7.5, 9.0, 10.5, 12.0, 4.9, 3.6, 2.5, 2.0, 2.5, 3.6, 4.9, 6.3, 7.8, 9.2, 10.7, 12.2], [0, 0, 0, 0, 0, 0, 0, 0, 0, 0, 0, 0, 0, 0, 0, 0, 0, 0, 0, 0, 0, 0, 0, 0, 0, 0, 0, 0, 0, 0, 0, 0, 0, 0, 0, 0, 0, 0, 0, 0, 0, 0, 0, 0, 0, 0, 0, 0, 0, 0, 0, 0, 0, 0, 0, 0, 0, 0, 0, 0, 0, 0, 0, 0, 0, 0, 0, 0, 0, 0, 0, 0, 0, 0, 0, 0, 0, 1.5, 3.0, 4.5, 6.0, 7.5, 9.0, 10.5, 6.3, 4.9, 3.6, 2.5, 2.0, 2.5, 3.6, 4.9, 6.3, 7.8, 9.2, 10.7], [0, 0, 0, 0, 0, 0, 0, 0, 0, 0, 0, 0, 0, 0, 0, 0, 0, 0, 0, 0, 0, 0, 0, 0, 0, 0, 0, 0, 0, 0, 0, 0, 0, 0, 0, 0, 0, 0, 0, 0, 0, 0, 0, 0, 0, 0, 0, 0, 0, 0, 0, 0, 0, 0, 0, 0, 0, 0, 0, 0, 0, 0, 0, 0, 0, 0, 0, 0, 0, 0, 0, 0, 0, 0, 0, 0, 0, 0, 1.5, 3.0, 4.5, 6.0, 7.5, 9.0, 7.8, 6.3, 4.9, 3.6, 2.5, 2.0, 2.5, 3.6, 4.9, 6.3, 7.8, 9.2], [0, 0, 0, 0, 0, 0, 0, 0, 0, 0, 0, 0, 0, 0, 0, 0, 0, 0, 0, 0, 0, 0, 0, 0, 0, 0, 0, 0, 0, 0, 0, 0, 0, 0, 0, 0, 0, 0, 0, 0, 0, 0, 0, 0, 0, 0, 0, 0, 0, 0, 0, 0, 0, 0, 0, 0, 0, 0, 0, 0, 0, 0, 0, 0, 0, 0, 0, 0, 0, 0, 0, 0, 0, 0, 0, 0, 0, 0, 0, 1.5, 3.0, 4.5, 6.0, 7.5, 9.2, 7.8, 6.3, 4.9, 3.6, 2.5, 2.0, 2.5, 3.6, 4.9, 6.3, 7.8], [0, 0, 0, 0, 0, 0, 0, 0, 0, 0, 0, 0, 0, 0, 0, 0, 0, 0, 0, 0, 0, 0, 0, 0, 0, 0, 0, 0, 0, 0, 0, 0, 0, 0, 0, 0, 0, 0, 0, 0, 0, 0, 0, 0, 0, 0, 0, 0, 0, 0, 0, 0, 0, 0, 0, 0, 0, 0, 0, 0, 0, 0, 0, 0, 0, 0, 0, 0, 0, 0, 0, 0, 0, 0, 0, 0, 0, 0, 0, 0, 1.5, 3.0, 4.5, 6.0, 10.7, 9.2, 7.8, 6.3, 4.9, 3.6, 2.5, 2.0, 2.5, 3.6, 4.9, 6.3], [0, 0, 0, 0, 0, 0, 0, 0, 0, 0, 0, 0, 0, 0, 0, 0, 0, 0, 0, 0, 0, 0, 0, 0, 0, 0, 0, 0, 0, 0, 0, 0, 0, 0, 0, 0, 0, 0, 0, 0, 0, 0, 0, 0, 0, 0, 0, 0, 0, 0, 0, 0, 0, 0, 0, 0, 0, 0, 0, 0, 0, 0, 0, 0, 0, 0, 0, 0, 0, 0, 0, 0, 0, 0, 0, 0, 0, 0, 0, 0, 0, 1.5, 3.0, 4.5, 12.2, 10.7, 9.2, 7.8, 6.3, 4.9, 3.6, 2.5, 2.0, 2.5, 3.6, 4.9], [0, 0, 0, 0, 0, 0, 0, 0, 0, 0, 0, 0, 0, 0, 0, 0, 0, 0, 0, 0, 0, 0, 0, 0, 0, 0, 0, 0, 0, 0, 0, 0, 0, 0, 0, 0, 0, 0, 0, 0, 0, 0, 0, 0, 0, 0, 0, 0, 0, 0, 0, 0, 0, 0, 0, 0, 0, 0, 0, 0, 0, 0, 0, 0, 0, 0, 0, 0, 0, 0, 0, 0, 0, 0, 0, 0, 0, 0, 0, 0, 0, 0, 1.5, 3.0, 13.6, 12.2, 10.7, 9.2, 7.8, 6.3, 4.9, 3.6, 2.5, 2.0, 2.5, 3.6], [0, 0, 0, 0, 0, 0, 0, 0, 0, 0, 0, 0, 0, 0, 0, 0, 0, 0, 0, 0, 0, 0, 0, 0, 0, 0, 0, 0, 0, 0, 0, 0, 0, 0, 0, 0, 0, 0, 0, 0, 0, 0, 0, 0, 0, 0, 0, 0, 0, 0, 0, 0, 0, 0, 0, 0, 0, 0, 0, 0, 0, 0, 0, 0, 0, 0, 0, 0, 0, 0, 0, 0, 0, 0, 0, 0, 0, 0, 0, 0, 0, 0, 0, 1.5, 15.1, 13.6, 12.2, 10.7, 9.2, 7.8, 6.3, 4.9, 3.6, 2.5, 2.0, 2.5], [0, 0, 0, 0, 0, 0, 0, 0, 0, 0, 0, 0, 0, 0, 0, 0, 0, 0, 0, 0, 0, 0, 0, 0, 0, 0, 0, 0, 0, 0, 0, 0, 0, 0, 0, 0, 0, 0, 0, 0, 0, 0, 0, 0, 0, 0, 0, 0, 0, 0, 0, 0, 0, 0, 0, 0, 0, 0, 0, 0, 0, 0, 0, 0, 0, 0, 0, 0, 0, 0, 0, 0, 0, 0, 0, 0, 0, 0, 0, 0, 0, 0, 0, 0, 16.6, 15.1, 13.6, 12.2, 10.7, 9.2, 7.8, 6.3, 4.9, 3.6, 2.5, 2.0], [0, 0, 0, 0, 0, 0, 0, 0, 0, 0, 0, 0, 0, 0, 0, 0, 0, 0, 0, 0, 0, 0, 0, 0, 0, 0, 0, 0, 0, 0, 0, 0, 0, 0, 0, 0, 0, 0, 0, 0, 0, 0, 0, 0, 0, 0, 0, 0, 0, 0, 0, 0, 0, 0, 0, 0, 0, 0, 0, 0, 0, 0, 0, 0, 0, 0, 0, 0, 0, 0, 0, 0, 0, 0, 0, 0, 0, 0, 0, 0, 0, 0, 0, 0, 0, 1.5, 3.0, 4.5, 6.0, 7.5, 9.0, 10.5, 12.0, 13.5, 15.0, 16.5], [0, 0, 0, 0, 0, 0, 0, 0, 0, 0, 0, 0, 0, 0, 0, 0, 0, 0, 0, 0, 0, 0, 0, 0, 0, 0, 0, 0, 0, 0, 0, 0, 0, 0, 0, 0, 0, 0, 0, 0, 0, 0, 0, 0, 0, 0, 0, 0, 0, 0, 0, 0, 0, 0, 0, 0, 0, 0, 0, 0, 0, 0, 0, 0, 0, 0, 0, 0, 0, 0, 0, 0, 0, 0, 0, 0, 0, 0, 0, 0, 0, 0, 0, 0, 0, 0, 1.5, 3.0, 4.5, 6.0, 7.5, 9.0, 10.5, 12.0, 13.5, 15.0], [0, 0, 0, 0, 0, 0, 0, 0, 0, 0, 0, 0, 0, 0, 0, 0, 0, 0, 0, 0, 0, 0, 0, 0, 0, 0, 0, 0, 0, 0, 0, 0, 0, 0, 0, 0, 0, 0, 0, 0, 0, 0, 0, 0, 0, 0, 0, 0, 0, 0, 0, 0, 0, 0, 0, 0, 0, 0, 0, 0, 0, 0, 0, 0, 0, 0, 0, 0, 0, 0, 0, 0, 0, 0, 0, 0, 0, 0, 0, 0, 0, 0, 0, 0, 0, 0, 0, 1.5, 3.0, 4.5, 6.0, 7.5, 9.0, 10.5, 12.0, 13.5], [0, 0, 0, 0, 0, 0, 0, 0, 0, 0, 0, 0, 0, 0, 0, 0, 0, 0, 0, 0, 0, 0, 0, 0, 0, 0, 0, 0, 0, 0, 0, 0, 0, 0, 0, 0, 0, 0, 0, 0, 0, 0, 0, 0, 0, 0, 0, 0, 0, 0, 0, 0, 0, 0, 0, 0, 0, 0, 0, 0, 0, 0, 0, 0, 0, 0, 0, 0, 0, 0, 0, 0, 0, 0, 0, 0, 0, 0, 0, 0, 0, 0, 0, 0, 0, 0, 0, 0, 1.5, 3.0, 4.5, 6.0, 7.5, 9.0, 10.5, 12.0], [0, 0, 0, 0, 0, 0, 0, 0, 0, 0, 0, 0, 0, 0, 0, 0, 0, 0, 0, 0, 0, 0, 0, 0, 0, 0, 0, 0, 0, 0, 0, 0, 0, 0, 0, 0, 0, 0, 0, 0, 0, 0, 0, 0, 0, 0, 0, 0, 0, 0, 0, 0, 0, 0, 0, 0, 0, 0, 0, 0, 0, 0, 0, 0, 0, 0, 0, 0, 0, 0, 0, 0, 0, 0, 0, 0, 0, 0, 0, 0, 0, 0, 0, 0, 0, 0, 0, 0, 0, 1.5, 3.0, 4.5, 6.0, 7.5, 9.0, 10.5], [0, 0, 0, 0, 0, 0, 0, 0, 0, 0, 0, 0, 0, 0, 0, 0, 0, 0, 0, 0, 0, 0, 0, 0, 0, 0, 0, 0, 0, 0, 0, 0, 0, 0, 0, 0, 0, 0, 0, 0, 0, 0, 0, 0, 0, 0, 0, 0, 0, 0, 0, 0, 0, 0, 0, 0, 0, 0, 0, 0, 0, 0, 0, 0, 0, 0, 0, 0, 0, 0, 0, 0, 0, 0, 0, 0, 0, 0, 0, 0, 0, 0, 0, 0, 0, 0, 0, 0, 0, 0, 1.5, 3.0, 4.5, 6.0, 7.5, 9.0], [0, 0, 0, 0, 0, 0, 0, 0, 0, 0, 0, 0, 0, 0, 0, 0, 0, 0, 0, 0, 0, 0, 0, 0, 0, 0, 0, 0, 0, 0, 0, 0, 0, 0, 0, 0, 0, 0, 0, 0, 0, 0, 0, 0, 0, 0, 0, 0, 0, 0, 0, 0, 0, 0, 0, 0, 0, 0, 0, 0, 0, 0, 0, 0, 0, 0, 0, 0, 0, 0, 0, 0, 0, 0, 0, 0, 0, 0, 0, 0, 0, 0, 0, 0, 0, 0, 0, 0, 0, 0, 0, 1.5, 3.0, 4.5, 6.0, 7.5], [0, 0, 0, 0, 0, 0, 0, 0, 0, 0, 0, 0, 0, 0, 0, 0, 0, 0, 0, 0, 0, 0, 0, 0, 0, 0, 0, 0, 0, 0, 0, 0, 0, 0, 0, 0, 0, 0, 0, 0, 0, 0, 0, 0, 0, 0, 0, 0, 0, 0, 0, 0, 0, 0, 0, 0, 0, 0, 0, 0, 0, 0, 0, 0, 0, 0, 0, 0, 0, 0, 0, 0, 0, 0, 0, 0, 0, 0, 0, 0, 0, 0, 0, 0, 0, 0, 0, 0, 0, 0, 0, 0, 1.5, 3.0, 4.5, 6.0], [0, 0, 0, 0, 0, 0, 0, 0, 0, 0, 0, 0, 0, 0, 0, 0, 0, 0, 0, 0, 0, 0, 0, 0, 0, 0, 0, 0, 0, 0, 0, 0, 0, 0, 0, 0, 0, 0, 0, 0, 0, 0, 0, 0, 0, 0, 0, 0, 0, 0, 0, 0, 0, 0, 0, 0, 0, 0, 0, 0, 0, 0, 0, 0, 0, 0, 0, 0, 0, 0, 0, 0, 0, 0, 0, 0, 0, 0, 0, 0, 0, 0, 0, 0, 0, 0, 0, 0, 0, 0, 0, 0, 0, 1.5, 3.0, 4.5], [0, 0, 0, 0, 0, 0, 0, 0, 0, 0, 0, 0, 0, 0, 0, 0, 0, 0, 0, 0, 0, 0, 0, 0, 0, 0, 0, 0, 0, 0, 0, 0, 0, 0, 0, 0, 0, 0, 0, 0, 0, 0, 0, 0, 0, 0, 0, 0, 0, 0, 0, 0, 0, 0, 0, 0, 0, 0, 0, 0, 0, 0, 0, 0, 0, 0, 0, 0, 0, 0, 0, 0, 0, 0, 0, 0, 0, 0, 0, 0, 0, 0, 0, 0, 0, 0, 0, 0, 0, 0, 0, 0, 0, 0, 1.5, 3.0], [0, 0, 0, 0, 0, 0, 0, 0, 0, 0, 0, 0, 0, 0, 0, 0, 0, 0, 0, 0, 0, 0, 0, 0, 0, 0, 0, 0, 0, 0, 0, 0, 0, 0, 0, 0, 0, 0, 0, 0, 0, 0, 0, 0, 0, 0, 0, 0, 0, 0, 0, 0, 0, 0, 0, 0, 0, 0, 0, 0, 0, 0, 0, 0, 0, 0, 0, 0, 0, 0, 0, 0, 0, 0, 0, 0, 0, 0, 0, 0, 0, 0, 0, 0, 0, 0, 0, 0, 0, 0, 0, 0, 0, 0, 0, 1.5], [0, 0, 0, 0, 0, 0, 0, 0, 0, 0, 0, 0, 0, 0, 0, 0, 0, 0, 0, 0, 0, 0, 0, 0, 0, 0, 0, 0, 0, 0, 0, 0, 0, 0, 0, 0, 0, 0, 0, 0, 0, 0, 0, 0, 0, 0, 0, 0, 0, 0, 0, 0, 0, 0, 0, 0, 0, 0, 0, 0, 0, 0, 0, 0, 0, 0, 0, 0, 0, 0, 0, 0, 0, 0, 0, 0, 0, 0, 0, 0, 0, 0, 0, 0, 0, 0, 0, 0, 0, 0, 0, 0, 0, 0, 0, 0]];